TITL dom1_mc_a.res in C2/m
    dom1_mc.res
    created by SHELXL-2018/3 at 13:15:26 on 21-Jun-2023
REM Old TITL dom1_mc_a.res in C2/m
REM SHELXT solution in C2/m: R1 0.185, Rweak 0.014, Alpha 0.046
REM <I/s> 0.000 for 0 systematic absences, Orientation as input
REM Formula found by SHELXT: Cl8 Fe3
CELL 0.2903 9.5434 2.9127 11.1936 90 115.832 90
ZERR 2 0.0023 0.0012 0.0053 0 0.042 0
LATT 7
SYMM -X,+Y,-Z
SFAC Cl Fe
DISP Cl 0.0044 0.0253 56.6422
DISP Fe 0.057 0.1523 285.2598
UNIT 16 6

L.S. 10
PLAN  5
CONF
list 4
MORE -1
fmap 2
acta
OMIT -4 2 10
OMIT 1 1 4
OMIT 4 0 1
OMIT -3 1 1
OMIT 2 0 2
REM <olex2.extras>
REM <HklSrc "%.\\dom1_mC.hkl">
REM </olex2.extras>

WGHT    0.200000
FVAR       0.62670
FE01  2    0.500000    1.000000    0.500000    10.25000    0.00904    0.01839 =
         0.00522    0.00000   -0.00272    0.00000
FE02  2    0.347208    0.500000    0.169477    10.50000    0.01514    0.01268 =
         0.01429    0.00000    0.00399    0.00000
CL03  1    0.151763    0.000000    0.043119    10.50000    0.01136    0.01080 =
         0.01367    0.00000    0.00256    0.00000
CL04  1    0.533378    0.000000    0.196224    10.50000    0.01765    0.00595 =
         0.01655    0.00000    0.00804    0.00000
CL05  1    0.388095    0.500000    0.564011    10.50000    0.01077    0.00805 =
         0.02076    0.00000    0.00220    0.00000
CL06  1    0.307116    1.000000    0.315248    10.50000    0.01582    0.00399 =
         0.01822    0.00000    0.00800    0.00000
HKLF 4




REM  dom1_mc_a.res in C2/m
REM wR2 = 0.4568, GooF = S = 1.916, Restrained GooF = 1.916 for all data
REM R1 = 0.1629 for 285 Fo > 4sig(Fo) and 0.1818 for all 353 data
REM 35 parameters refined using 0 restraints

END  
     
WGHT      0.2000      0.0000 

REM Highest difference peak  3.851,  deepest hole -3.702,  1-sigma level  0.817
Q1    1   0.4704  0.5000  0.5525  10.50000  0.05    3.85
Q2    1   0.1210  1.0000  0.2378  10.50000  0.05    3.33
Q3    1   0.3010  0.5000  0.5492  10.50000  0.05    3.04
Q4    1   0.5231  0.5000  0.2596  10.50000  0.05    2.92
Q5    1   0.3879  0.5000  0.3570  10.50000  0.05    2.82
